
(set-logic ALL) 

(declare-datatype MyList ((Nil) (Cons (head Real) (tail MyList)) )) 
(declare-fun l0 () MyList) 
(declare-fun l1 () MyList) 
(declare-fun l2 () MyList) 
(declare-fun l3 () MyList) 
(declare-fun i0 () Real) 
(declare-fun i1 () Real) 
(assert (and (= l1 Nil) (= l2 Nil) (= l3 Nil)) )
(assert (or (is-Nil Nil) (is-Nil Nil) (= l1 l1) (= l2 Nil)) )
(assert (or (= l1 l1) (= l3 Nil) (= l1 Nil)) )
(assert (is-Cons l3) )
(assert (= l3 Nil) )
(assert (= l0 Nil) )
(assert (and (= l3 l0) (= l0 l2) (is-Nil Nil)) )
(assert (not (is-Nil Nil)) )
(check-sat)
